Route #1: 6 60 84 17 61 16 86 44 38 14 42 43 15 57 87 97 92 98 37 100 91 85 93 59 99 96 95 94
Route #2: 27 52 31 88 7 82 48 19 11 62 10 90 63 64 49 36 47 46 8 45 83 5 18 89
Route #3: 69 1 70 30 32 20 66 71 65 35 34 78 29 80 68 77 3 79 33 81 9 51 50 76 28
Route #4: 13 2 73 21 72 74 22 41 75 56 23 67 39 4 25 55 24 54 12 26 40 58 53
cost 725
%user    0m46.406s
